 vasp.5.4.4.18Apr17-6-g9f103f2a35 (build Jan 25 2021 16:16:55) complex

 executed on             LinuxIFC date 2022.02.25  08:23:39

 INCAR:
 POTCAR:    PAW_PBE Ru 04Feb2005
 POTCAR:    PAW_PBE S 06Sep2000
 POTCAR:    PAW_PBE Ru 04Feb2005
   VRHFIN =Ru: s1 d7

   TITEL  = PAW_PBE Ru 04Feb2005
   POMASS =  101.070; ZVAL   =    8.000    mass and valenz
   ENMAX  =  213.271; ENMIN  =  159.953 eV

   TITEL  = PAW_PBE S 06Sep2000
   POMASS =   32.066; ZVAL   =    6.000    mass and valenz
   ENMAX  =  258.689; ENMIN  =  194.016 eV

  PAW_PBE Ru 04Feb2005                  :
  PAW_PBE S 06Sep2000                   :

 POSCAR: Ru4 S8
  positions in direct lattice
 exchange correlation table for  LEXCH =        8
   RHO(1)=    0.500       N(1)  =     2000
   RHO(2)=  100.500       N(2)  =     4000

 ion  position               nearest neighbor table
   1  0.000  0.500  0.500-   6 2.37   7 2.37   8 2.37   9 2.37  10 2.37  11 2.37
   2  0.500  0.500  0.000-   5 2.37   7 2.37   8 2.37   9 2.37  10 2.37  12 2.37
   3  0.500  0.000  0.500-   5 2.37   6 2.37   8 2.37   9 2.37  11 2.37  12 2.37
   4  0.000  0.000  0.000-   5 2.37   6 2.37   7 2.37  10 2.37  11 2.37  12 2.37
   5  0.387  0.113  0.887-  12 2.21   3 2.37   4 2.37   2 2.37
   6  0.113  0.887  0.387-  11 2.21   3 2.37   4 2.37   1 2.37
   7  0.887  0.387  0.113-  10 2.21   2 2.37   4 2.37   1 2.37
   8  0.613  0.613  0.613-   9 2.21   2 2.37   3 2.37   1 2.37
   9  0.387  0.387  0.387-   8 2.21   2 2.37   3 2.37   1 2.37
  10  0.113  0.613  0.887-   7 2.21   2 2.37   4 2.37   1 2.37
  11  0.887  0.113  0.613-   6 2.21   3 2.37   4 2.37   1 2.37
  12  0.613  0.887  0.113-   5 2.21   3 2.37   4 2.37   2 2.37

  LATTYP: Found a simple cubic cell.
 ALAT       =     5.6558220000

  Lattice vectors:

 A1 = (   5.6558220000,   0.0000000000,   0.0000000000)
 A2 = (   0.0000000000,   5.6558220000,   0.0000000000)
 A3 = (   0.0000000000,   0.0000000000,   5.6558220000)

Analysis of symmetry for initial positions (statically):
 Subroutine PRICEL returns:
 Original cell was already a primitive cell.

 Routine SETGRP: Setting up the symmetry group for a
 simple cubic supercell.

 Subroutine GETGRP returns: Found 24 space group operations
 (whereof  6 operations were pure point group operations)
 out of a pool of 48 trial point group operations.

The static configuration has the point symmetry S_6 .
 The point group associated with its full space group is T_h .

Analysis of symmetry for dynamics (positions and initial velocities):
 Subroutine PRICEL returns:
 Original cell was already a primitive cell.

 Routine SETGRP: Setting up the symmetry group for a
 simple cubic supercell.

 Subroutine GETGRP returns: Found 24 space group operations
 (whereof  6 operations were pure point group operations)
 out of a pool of 48 trial point group operations.

The dynamic configuration has the point symmetry S_6 .
 The point group associated with its full space group is T_h .

 Subroutine INISYM returns: Found 24 space group operations
 (whereof  6 operations are pure point group operations),
 and found     1 'primitive' translations

 KPOINTS: K-Points

Automatic generation of k-mesh.
Space group operators:
 irot       det(A)        alpha          n_x          n_y          n_z        tau_x        tau_y        tau_z
    1     1.000000     0.000000     1.000000     0.000000     0.000000     0.000000     0.000000     0.000000
    2    -1.000000     0.000000     1.000000     0.000000     0.000000     0.000000     0.000000     0.000000
    3     1.000000   120.000000    -0.577350    -0.577350    -0.577350     0.000000     0.000000     0.000000
    4    -1.000000   120.000000    -0.577350    -0.577350    -0.577350     0.000000     0.000000     0.000000
    5     1.000000   120.000000     0.577350     0.577350     0.577350     0.000000     0.000000     0.000000
    6    -1.000000   120.000000     0.577350     0.577350     0.577350     0.000000     0.000000     0.000000
    7     1.000000   180.000000     0.000000     0.000000     1.000000     0.500000     0.000000     0.500000
    8    -1.000000   180.000000     0.000000     0.000000     1.000000     0.500000     0.000000     0.500000
    9     1.000000   120.000000    -0.577350     0.577350     0.577350     0.500000     0.000000     0.500000
   10    -1.000000   120.000000    -0.577350     0.577350     0.577350     0.500000     0.000000     0.500000
   11     1.000000   120.000000    -0.577350     0.577350    -0.577350     0.500000     0.000000     0.500000
   12    -1.000000   120.000000    -0.577350     0.577350    -0.577350     0.500000     0.000000     0.500000
   13     1.000000   120.000000     0.577350    -0.577350     0.577350     0.500000     0.500000     0.000000
   14    -1.000000   120.000000     0.577350    -0.577350     0.577350     0.500000     0.500000     0.000000
   15     1.000000   120.000000    -0.577350    -0.577350     0.577350     0.500000     0.500000     0.000000
   16    -1.000000   120.000000    -0.577350    -0.577350     0.577350     0.500000     0.500000     0.000000
   17     1.000000   180.000000     1.000000     0.000000     0.000000     0.500000     0.500000     0.000000
   18    -1.000000   180.000000     1.000000     0.000000     0.000000     0.500000     0.500000     0.000000
   19     1.000000   120.000000     0.577350    -0.577350    -0.577350     0.000000     0.500000     0.500000
   20    -1.000000   120.000000     0.577350    -0.577350    -0.577350     0.000000     0.500000     0.500000
   21     1.000000   180.000000     0.000000     1.000000     0.000000     0.000000     0.500000     0.500000
   22    -1.000000   180.000000     0.000000     1.000000     0.000000     0.000000     0.500000     0.500000
   23     1.000000   120.000000     0.577350     0.577350    -0.577350     0.000000     0.500000     0.500000
   24    -1.000000   120.000000     0.577350     0.577350    -0.577350     0.000000     0.500000     0.500000

 Subroutine IBZKPT returns following result:

 Found     76 irreducible k-points:

 Following reciprocal coordinates:
            Coordinates               Weight
  0.000000  0.000000  0.000000      1.000000
  0.090909  0.000000  0.000000      6.000000
  0.181818  0.000000  0.000000      6.000000
  0.272727  0.000000  0.000000      6.000000
  0.363636  0.000000  0.000000      6.000000
  0.454545  0.000000  0.000000      6.000000
  0.090909  0.090909  0.000000     12.000000
  0.181818  0.090909  0.000000     12.000000
  0.272727  0.090909  0.000000     12.000000
  0.363636  0.090909  0.000000     12.000000
  0.454545  0.090909  0.000000     12.000000
  0.090909  0.181818  0.000000     12.000000
  0.181818  0.181818  0.000000     12.000000
  0.272727  0.181818  0.000000     12.000000
  0.363636  0.181818  0.000000     12.000000
  0.454545  0.181818  0.000000     12.000000
  0.090909  0.272727  0.000000     12.000000
  0.181818  0.272727  0.000000     12.000000
  0.272727  0.272727  0.000000     12.000000
  0.363636  0.272727  0.000000     12.000000
  0.454545  0.272727  0.000000     12.000000
  0.090909  0.363636  0.000000     12.000000
  0.181818  0.363636  0.000000     12.000000
  0.272727  0.363636  0.000000     12.000000
  0.363636  0.363636  0.000000     12.000000
  0.454545  0.363636  0.000000     12.000000
  0.090909  0.454545  0.000000     12.000000
  0.181818  0.454545  0.000000     12.000000
  0.272727  0.454545  0.000000     12.000000
  0.363636  0.454545  0.000000     12.000000
  0.454545  0.454545  0.000000     12.000000
  0.090909  0.090909  0.090909      8.000000
  0.181818  0.090909  0.090909     24.000000
  0.272727  0.090909  0.090909     24.000000
  0.363636  0.090909  0.090909     24.000000
  0.454545  0.090909  0.090909     24.000000
  0.181818  0.181818  0.090909     24.000000
  0.272727  0.181818  0.090909     24.000000
  0.363636  0.181818  0.090909     24.000000
  0.454545  0.181818  0.090909     24.000000
  0.181818  0.272727  0.090909     24.000000
  0.272727  0.272727  0.090909     24.000000
  0.363636  0.272727  0.090909     24.000000
  0.454545  0.272727  0.090909     24.000000
  0.181818  0.363636  0.090909     24.000000
  0.272727  0.363636  0.090909     24.000000
  0.363636  0.363636  0.090909     24.000000
  0.454545  0.363636  0.090909     24.000000
  0.181818  0.454545  0.090909     24.000000
  0.272727  0.454545  0.090909     24.000000
  0.363636  0.454545  0.090909     24.000000
  0.454545  0.454545  0.090909     24.000000
  0.181818  0.181818  0.181818      8.000000
  0.272727  0.181818  0.181818     24.000000
  0.363636  0.181818  0.181818     24.000000
  0.454545  0.181818  0.181818     24.000000
  0.272727  0.272727  0.181818     24.000000
  0.363636  0.272727  0.181818     24.000000
  0.454545  0.272727  0.181818     24.000000
  0.272727  0.363636  0.181818     24.000000
  0.363636  0.363636  0.181818     24.000000
  0.454545  0.363636  0.181818     24.000000
  0.272727  0.454545  0.181818     24.000000
  0.363636  0.454545  0.181818     24.000000
  0.454545  0.454545  0.181818     24.000000
  0.272727  0.272727  0.272727      8.000000
  0.363636  0.272727  0.272727     24.000000
  0.454545  0.272727  0.272727     24.000000
  0.363636  0.363636  0.272727     24.000000
  0.454545  0.363636  0.272727     24.000000
  0.363636  0.454545  0.272727     24.000000
  0.454545  0.454545  0.272727     24.000000
  0.363636  0.363636  0.363636      8.000000
  0.454545  0.363636  0.363636     24.000000
  0.454545  0.454545  0.363636     24.000000
  0.454545  0.454545  0.454545      8.000000

 Following cartesian coordinates:
            Coordinates               Weight
  0.000000  0.000000  0.000000      1.000000
  0.016074  0.000000  0.000000      6.000000
  0.032147  0.000000  0.000000      6.000000
  0.048221  0.000000  0.000000      6.000000
  0.064294  0.000000  0.000000      6.000000
  0.080368  0.000000  0.000000      6.000000
  0.016074  0.016074  0.000000     12.000000
  0.032147  0.016074  0.000000     12.000000
  0.048221  0.016074  0.000000     12.000000
  0.064294  0.016074  0.000000     12.000000
  0.080368  0.016074  0.000000     12.000000
  0.016074  0.032147  0.000000     12.000000
  0.032147  0.032147  0.000000     12.000000
  0.048221  0.032147  0.000000     12.000000
  0.064294  0.032147  0.000000     12.000000
  0.080368  0.032147  0.000000     12.000000
  0.016074  0.048221  0.000000     12.000000
  0.032147  0.048221  0.000000     12.000000
  0.048221  0.048221  0.000000     12.000000
  0.064294  0.048221  0.000000     12.000000
  0.080368  0.048221  0.000000     12.000000
  0.016074  0.064294  0.000000     12.000000
  0.032147  0.064294  0.000000     12.000000
  0.048221  0.064294  0.000000     12.000000
  0.064294  0.064294  0.000000     12.000000
  0.080368  0.064294  0.000000     12.000000
  0.016074  0.080368  0.000000     12.000000
  0.032147  0.080368  0.000000     12.000000
  0.048221  0.080368  0.000000     12.000000
  0.064294  0.080368  0.000000     12.000000
  0.080368  0.080368  0.000000     12.000000
  0.016074  0.016074  0.016074      8.000000
  0.032147  0.016074  0.016074     24.000000
  0.048221  0.016074  0.016074     24.000000
  0.064294  0.016074  0.016074     24.000000
[...]
 k-point 30 :   0.3636 0.4545 0.0000  plane waves:    1691
 k-point 31 :   0.4545 0.4545 0.0000  plane waves:    1690
 k-point 32 :   0.0909 0.0909 0.0909  plane waves:    1719
 k-point 33 :   0.1818 0.0909 0.0909  plane waves:    1721
 k-point 34 :   0.2727 0.0909 0.0909  plane waves:    1720
 k-point 35 :   0.3636 0.0909 0.0909  plane waves:    1716
 k-point 36 :   0.4545 0.0909 0.0909  plane waves:    1716
 k-point 37 :   0.1818 0.1818 0.0909  plane waves:    1718
 k-point 38 :   0.2727 0.1818 0.0909  plane waves:    1710
 k-point 39 :   0.3636 0.1818 0.0909  plane waves:    1708
 k-point 40 :   0.4545 0.1818 0.0909  plane waves:    1709
 k-point 41 :   0.1818 0.2727 0.0909  plane waves:    1710
 k-point 42 :   0.2727 0.2727 0.0909  plane waves:    1709
 k-point 43 :   0.3636 0.2727 0.0909  plane waves:    1699
 k-point 44 :   0.4545 0.2727 0.0909  plane waves:    1705
 k-point 45 :   0.1818 0.3636 0.0909  plane waves:    1708
 k-point 46 :   0.2727 0.3636 0.0909  plane waves:    1699
 k-point 47 :   0.3636 0.3636 0.0909  plane waves:    1699
 k-point 48 :   0.4545 0.3636 0.0909  plane waves:    1703
 k-point 49 :   0.1818 0.4545 0.0909  plane waves:    1709
 k-point 50 :   0.2727 0.4545 0.0909  plane waves:    1705
 k-point 51 :   0.3636 0.4545 0.0909  plane waves:    1703
 k-point 52 :   0.4545 0.4545 0.0909  plane waves:    1696
 k-point 53 :   0.1818 0.1818 0.1818  plane waves:    1716
 k-point 54 :   0.2727 0.1818 0.1818  plane waves:    1709
 k-point 55 :   0.3636 0.1818 0.1818  plane waves:    1706
 k-point 56 :   0.4545 0.1818 0.1818  plane waves:    1711
 k-point 57 :   0.2727 0.2727 0.1818  plane waves:    1709
 k-point 58 :   0.3636 0.2727 0.1818  plane waves:    1711
 k-point 59 :   0.4545 0.2727 0.1818  plane waves:    1710
 k-point 60 :   0.2727 0.3636 0.1818  plane waves:    1711
 k-point 61 :   0.3636 0.3636 0.1818  plane waves:    1699
 k-point 62 :   0.4545 0.3636 0.1818  plane waves:    1708
 k-point 63 :   0.2727 0.4545 0.1818  plane waves:    1710
 k-point 64 :   0.3636 0.4545 0.1818  plane waves:    1708
 k-point 65 :   0.4545 0.4545 0.1818  plane waves:    1705
 k-point 66 :   0.2727 0.2727 0.2727  plane waves:    1701
 k-point 67 :   0.3636 0.2727 0.2727  plane waves:    1711
 k-point 68 :   0.4545 0.2727 0.2727  plane waves:    1700
 k-point 69 :   0.3636 0.3636 0.2727  plane waves:    1715
 k-point 70 :   0.4545 0.3636 0.2727  plane waves:    1712
 k-point 71 :   0.3636 0.4545 0.2727  plane waves:    1712
 k-point 72 :   0.4545 0.4545 0.2727  plane waves:    1707
 k-point 73 :   0.3636 0.3636 0.3636  plane waves:    1706
 k-point 74 :   0.4545 0.3636 0.3636  plane waves:    1705
 k-point 75 :   0.4545 0.4545 0.3636  plane waves:    1706
 k-point 76 :   0.4545 0.4545 0.4545  plane waves:    1700

 maximum and minimum number of plane-waves per node :       873      840

 maximum number of plane-waves:      1743
 maximum index in each direction:
   IXMAX=    7   IYMAX=    7   IZMAX=    7
   IXMIN=   -7   IYMIN=   -7   IZMIN=   -7

 parallel 3D FFT for wavefunctions:
    minimum data exchange during FFTs selected (reduces bandwidth)
 parallel 3D FFT for charge:
    minimum data exchange during FFTs selected (reduces bandwidth)

 Broyden mixing: mesh for mixing (old mesh)
   NGX = 15   NGY = 15   NGZ = 15
  (NGX  = 60   NGY  = 60   NGZ  = 60)
  gives a total of   3375 points

 initial charge density was supplied:
 charge density of overlapping atoms calculated
 number of electron      80.0000000 magnetization
 keeping initial charge density in first step

 Maximum index for augmentation-charges         2463 (set IRDMAX)

 First call to EWALD:  gamma=   0.313
 Maximum number of real-space cells 3x 3x 3
 Maximum number of reciprocal cells 3x 3x 3

--------------------------------------- Iteration      1(   1)  ---------------------------------------

 eigenvalue-minimisations  :  7792
 total energy-change (2. order) : 0.3241687E+03  (-0.2435741E+04)
 number of electron      80.0000000 magnetization
 augmentation part       80.0000000 magnetization

 Free energy of the ion-electron system (eV)
  alpha Z        PSCENC =       190.43545681
  Ewald energy   TEWEN  =     -4393.89597749
  -Hartree energ DENC   =      -388.02694018
  -exchange      EXHF   =         0.00000000
  -V(xc)+E(xc)   XCENC  =       -25.69378162
  PAW double counting   =      3590.52942128    -3370.06040041
  entropy T*S    EENTRO =        -0.00270590
  eigenvalues    EBANDS =       687.10422731
  atomic energy  EATOM  =      4033.77937042
  Solvation  Ediel_sol  =         0.00000000
  free energy    TOTEN  =       324.16867022 eV

  energy without entropy =      324.17137612  energy(sigma->0) =      324.17002317

[...]

 eigenvalue-minimisations  :  8584
 total energy-change (2. order) :-0.3728412E+03  (-0.3541126E+03)
 number of electron      80.0000000 magnetization
 augmentation part       80.0000000 magnetization

[...]

 Broyden mixing:
  rms(total) = 0.35985E+01    rms(broyden)= 0.35969E+01
  rms(prec ) = 0.39275E+01
  weight for this iteration     100.00

[...]

 eigenvalues of (default mixing * dielectric matrix)
  average eigenvalue GAMMA=   1.5159
  1.5159

[...]

 eigenvalue-minimisations  : 10608
 total energy-change (2. order) :-0.9361346E-05  (-0.2654874E-05)
 number of electron      79.9999996 magnetization
 augmentation part        4.6368927 magnetization

[...]

 Broyden mixing:
  rms(total) = 0.89691E-03    rms(broyden)= 0.89686E-03
  rms(prec ) = 0.97016E-03
  weight for this iteration     100.00

 eigenvalues of (default mixing * dielectric matrix)
  average eigenvalue GAMMA=   1.4403
  2.7548  2.4808  1.9964  1.5394  1.0178  1.0178  0.7365  0.7365  0.6825

[...]

--------------------------------------- Iteration      1(  15)  ---------------------------------------

 eigenvalue-minimisations  :  5424
 total energy-change (2. order) : 0.6786504E-06  (-0.8390742E-07)
 number of electron      79.9999996 magnetization
 augmentation part        4.6384697 magnetization

 Free energy of the ion-electron system (eV)
  alpha Z        PSCENC =       190.43545681
  Ewald energy   TEWEN  =     -4393.89597749
  -Hartree energ DENC   =      -370.46210813
  -exchange      EXHF   =         0.00000000
  -V(xc)+E(xc)   XCENC  =       -24.05301081
  PAW double counting   =      8093.66927040    -7884.04250993
  entropy T*S    EENTRO =        -0.00000000
  eigenvalues    EBANDS =       278.15645582
  atomic energy  EATOM  =      4033.77937042
  Solvation  Ediel_sol  =         0.00000000
  free energy    TOTEN  =       -76.41305290 eV

  energy without entropy =      -76.41305290  energy(sigma->0) =      -76.41305290

 average (electrostatic) potential at core
  the test charge radii are     1.2511  0.9698
  (the norm of the test charge is              1.0000)
       1 -58.8813       2 -58.8813       3 -58.8813       4 -58.8813       5 -83.7133
       6 -83.7133       7 -83.7133       8 -83.7133       9 -83.7133      10 -83.7133
      11 -83.7133      12 -83.7133

 E-fermi :   8.8566     XC(G=0): -11.7342     alpha+bet :-14.9707

 k-point     1 :       0.0000    0.0000    0.0000
  band No.  band energies     occupation
      1      -7.4345      2.00000
      2      -5.9776      2.00000
      3      -5.9776      2.00000
      4      -5.9776      2.00000
      5      -3.3109      2.00000
      6      -3.3109      2.00000
      7      -3.3109      2.00000
      8      -2.3430      2.00000
      9       1.9534      2.00000
     10       1.9534      2.00000
     11       1.9534      2.00000
     12       3.4631      2.00000
     13       3.4631      2.00000
     14       3.4631      2.00000
     15       3.7399      2.00000
     16       3.7399      2.00000
     17       3.7399      2.00000
     18       4.0091      2.00000
     19       4.2248      2.00000
     20       4.2248      2.00000
     21       4.2849      2.00000
     22       4.2849      2.00000
     23       4.5588      2.00000
     24       4.5588      2.00000
     25       4.5588      2.00000
     26       6.1402      2.00000
     27       6.1402      2.00000
     28       6.1402      2.00000
     29       7.0346      2.00000
     30       7.0346      2.00000
     31       7.0346      2.00000
     32       7.8525      2.00000
     33       7.8525      2.00000
     34       8.0033      2.00000
     35       8.0033      2.00000
     36       8.0033      2.00000
     37       8.0687      2.00000
     38       8.0687      2.00000
     39       8.0687      2.00000
     40       8.3923      2.00000
     41       9.2163      0.00000
     42      11.0278      0.00000
     43      11.0278      0.00000
     44      11.0278      0.00000
     45      11.0986      0.00000
     46      11.0986      0.00000
     47      11.0986      0.00000
     48      13.2860      0.00000

[...]

 k-point    76 :       0.4545    0.4545    0.4545
  band No.  band energies     occupation
      1      -6.0306      2.00000
      2      -5.9837      2.00000
      3      -5.9822      2.00000
      4      -5.9822      2.00000
      5      -3.8646      2.00000
      6      -3.8646      2.00000
      7      -3.8502      2.00000
      8      -3.8393      2.00000
      9       2.0609      2.00000
     10       2.1168      2.00000
     11       2.1168      2.00000
     12       2.1328      2.00000
     13       3.2252      2.00000
     14       3.2252      2.00000
     15       3.3864      2.00000
     16       3.3864      2.00000
     17       3.5772      2.00000
     18       3.6901      2.00000
     19       3.7437      2.00000
     20       3.7437      2.00000
     21       6.4857      2.00000
     22       6.4857      2.00000
     23       6.5220      2.00000
     24       6.5564      2.00000
     25       6.5564      2.00000
     26       6.7485      2.00000
     27       6.7585      2.00000
     28       6.7585      2.00000
     29       7.0779      2.00000
     30       7.0779      2.00000
     31       7.1062      2.00000
     32       7.2018      2.00000
     33       7.2018      2.00000
     34       7.2939      2.00000
     35       7.3056      2.00000
     36       7.3056      2.00000
     37       7.9461      2.00000
     38       7.9989      2.00000
     39       7.9989      2.00000
     40       8.0055      2.00000
     41      10.6856      0.00000
     42      10.7455      0.00000
     43      10.7543      0.00000
     44      10.7543      0.00000
     45      11.9263      0.00000
     46      11.9263      0.00000
     47      11.9914      0.00000
     48      11.9918      0.00000

 soft charge-density along one line, spin component           1
         0         1         2         3         4         5         6         7         8         9
 total charge-density along one line

------------------------ aborting loop because EDIFF is reached ----------------------------------------

 total charge

# of ion       s       p       d       tot
    1        0.524   0.795   6.828   8.148
    2        0.523   0.799   6.791   8.112
    3        0.525   0.798   6.805   8.128
    4        0.532   0.805   6.813   8.150
    5        1.348   2.304   0.000   3.652
    6        1.349   2.304   0.000   3.653
    7        1.346   2.305   0.000   3.651
    8        1.338   2.309   0.000   3.647
    9        1.338   2.309   0.000   3.647
   10        1.346   2.305   0.000   3.651
   11        1.349   2.304   0.000   3.653
   12        1.348   2.304   0.000   3.652
tot         12.866  21.643  27.236  61.745

  FORCE on cell =-STRESS in cart. coord.  units (eV):
  Direction    XX          YY          ZZ          XY          YZ          ZX
  Alpha Z   190.43546   190.43546   190.43546
  Ewald   -1464.63400 -1464.63400 -1464.63400    -0.00000     0.00000    -0.00000
  Hartree   123.48617   123.48617   123.48617    -0.00000    -0.00000    -0.00000
  E(xc)    -323.57376  -323.57376  -323.57376    -0.00000    -0.00000    -0.00000
  Local    -221.65082  -221.65082  -221.65082    -0.00000    -0.00000    -0.00000
  n-local   617.07615   616.43222   617.59770    -0.14951    -0.24213    -0.14785
  augment    44.21594    44.21594    44.21594    -0.00000     0.00000    -0.00000
  Kinetic  1034.85838  1032.93451  1028.37130    -1.14926    -0.15327    -0.46549
  Fock        0.00000     0.00000     0.00000     0.00000     0.00000     0.00000
  Total      -2.63093    -2.63093    -2.63093    -0.00000     0.00000    -0.00000
  in kB     -23.29872   -23.29872   -23.29872    -0.00000     0.00000    -0.00000

 VOLUME and BASIS-vectors are now :
  energy-cutoff  :      258.69
  volume of cell :      180.92
      direct lattice vectors                 reciprocal lattice vectors
     5.655822000  0.000000000  0.000000000     0.176808959  0.000000000  0.000000000
     0.000000000  5.655822000  0.000000000     0.000000000  0.176808959  0.000000000
     0.000000000  0.000000000  5.655822000     0.000000000  0.000000000  0.176808959

  length of vectors
     5.655822000  5.655822000  5.655822000     0.176808959  0.176808959  0.176808959

 FORCES acting on ions
    electron-ion (+dipol)            ewald-force                    non-local-force                 convergence-correction
   -.515E-14 0.449E-13 0.104E-12   -.355E-14 0.213E-13 0.551E-13   -.583E-23 -.818E-24 -.251E-23   -.478E-13 0.244E-13 0.164E-13
   -.734E-12 0.486E-12 -.464E-12   0.355E-14 0.142E-13 -.533E-13   -.318E-23 0.219E-23 -.192E-23   0.514E-13 0.133E-13 -.414E-13
   0.211E-12 -.200E-12 -.304E-12   0.142E-13 -.462E-13 -.142E-13   -.193E-23 -.141E-23 -.150E-23   0.396E-13 -.159E-13 0.276E-13
   -.772E-13 -.946E-13 -.539E-13   0.000E+00 -.320E-13 0.178E-13   -.241E-23 -.701E-24 -.220E-23   -.395E-13 -.383E-14 -.330E-13
   0.440E+01 -.440E+01 0.440E+01   -.602E+01 0.602E+01 -.602E+01   0.156E+01 -.156E+01 0.156E+01   0.231E-03 -.231E-03 0.231E-03
   -.440E+01 0.440E+01 0.440E+01   0.602E+01 -.602E+01 -.602E+01   -.156E+01 0.156E+01 0.156E+01   -.231E-03 0.231E-03 0.231E-03
   0.440E+01 0.440E+01 -.440E+01   -.602E+01 -.602E+01 0.602E+01   0.156E+01 0.156E+01 -.156E+01   0.231E-03 0.231E-03 -.231E-03
   -.440E+01 -.440E+01 -.440E+01   0.602E+01 0.602E+01 0.602E+01   -.156E+01 -.156E+01 -.156E+01   -.231E-03 -.231E-03 -.231E-03
   0.440E+01 0.440E+01 0.440E+01   -.602E+01 -.602E+01 -.602E+01   0.156E+01 0.156E+01 0.156E+01   0.231E-03 0.231E-03 0.231E-03
   -.440E+01 -.440E+01 0.440E+01   0.602E+01 0.602E+01 -.602E+01   -.156E+01 -.156E+01 0.156E+01   -.231E-03 -.231E-03 0.231E-03
   0.440E+01 -.440E+01 -.440E+01   -.602E+01 0.602E+01 0.602E+01   0.156E+01 -.156E+01 -.156E+01   0.231E-03 -.231E-03 -.231E-03
   -.440E+01 0.440E+01 -.440E+01   0.602E+01 -.602E+01 0.602E+01   -.156E+01 0.156E+01 -.156E+01   -.231E-03 0.231E-03 -.231E-03
   -.291E-12 0.285E-11 -.798E-12   0.888E-15 -.888E-14 -.160E-13   0.000E+00 0.000E+00 0.000E+00   -.633E-14 0.911E-14 -.616E-13

 POSITION                                       TOTAL-FORCE (eV/Angst)
      0.00000      2.82791      2.82791        -0.000000      0.000000      0.000000
      2.82791      2.82791      0.00000         0.000000      0.000000     -0.000000
      2.82791      0.00000      2.82791        -0.000000      0.000000      0.000000
      0.00000      0.00000      0.00000         0.000000      0.000000      0.000000
      2.18993      0.63798      5.01784        -0.054649      0.054649     -0.054649
      0.63798      5.01784      2.18993         0.054649     -0.054649     -0.054649
      5.01784      2.18993      0.63798        -0.054649     -0.054649      0.054649
      3.46589      3.46589      3.46589         0.054649      0.054649      0.054649
      2.18993      2.18993      2.18993        -0.054649     -0.054649     -0.054649
      0.63798      3.46589      5.01784         0.054649      0.054649     -0.054649
      5.01784      0.63798      3.46589        -0.054649      0.054649      0.054649
      3.46589      5.01784      0.63798         0.054649     -0.054649      0.054649
    total drift:                               -0.000000      0.000000     -0.000000

  FREE ENERGIE OF THE ION-ELECTRON SYSTEM (eV)
  free  energy   TOTEN  =       -76.41305290 eV

  energy  without entropy=      -76.41305290  energy(sigma->0) =      -76.41305290

 writing wavefunctions

 total charge

# of ion       s       p       d       tot
    1        0.524   0.795   6.828   8.148
    2        0.523   0.799   6.791   8.112
    3        0.525   0.798   6.805   8.128
    4        0.532   0.805   6.813   8.150
    5        1.348   2.304   0.000   3.652
    6        1.349   2.304   0.000   3.653
    7        1.346   2.305   0.000   3.651
    8        1.338   2.309   0.000   3.647
    9        1.338   2.309   0.000   3.647
   10        1.346   2.305   0.000   3.651
   11        1.349   2.304   0.000   3.653
   12        1.348   2.304   0.000   3.652
tot         12.866  21.643  27.236  61.745