 vasp.5.4.4.18Apr17-6-g9f103f2a35 (build Jan 25 2021 16:16:55) complex

 executed on             LinuxIFC date 2022.02.15  17:07:51

 INCAR:
 POTCAR:    PAW_PBE Al 04Jan2001
 POTCAR:    PAW_PBE N 08Apr2002
 POTCAR:    PAW_PBE Al 04Jan2001
   VRHFIN =Al: s2p1

   TITEL  = PAW_PBE Al 04Jan2001
   POMASS =   26.981; ZVAL   =    3.000    mass and valenz
   ENMAX  =  240.300; ENMIN  =  180.225 eV

   TITEL  = PAW_PBE N 08Apr2002
   POMASS =   14.001; ZVAL   =    5.000    mass and valenz
   ENMAX  =  400.000; ENMIN  =  300.000 eV

  PAW_PBE Al 04Jan2001                  :
  PAW_PBE N 08Apr2002                   :

 POSCAR: Al2 N2
  positions in direct lattice
 exchange correlation table for  LEXCH =        8
   RHO(1)=    0.500       N(1)  =     2000
   RHO(2)=  100.500       N(2)  =     4000

 ion  position               nearest neighbor table
   1  0.667  0.333  0.499-   4 1.90   4 1.90   4 1.90   3 1.91   2 3.09   2 3.09   2 3.09   2 3.09
                             2 3.09   2 3.09
   2  0.333  0.667  0.999-   3 1.90   3 1.90   3 1.90   4 1.91   1 3.09   1 3.09   1 3.09   1 3.09
                             1 3.09   1 3.09
   3  0.667  0.333  0.881-   2 1.90   2 1.90   2 1.90   1 1.91
   4  0.333  0.667  0.381-   1 1.90   1 1.90   1 1.90   2 1.91

  LATTYP: Found a hexagonal cell.
 ALAT       =     3.1285880000
 C/A-ratio  =     1.6035844285

  Lattice vectors:

 A1 = (   1.5642940000,  -2.7094370000,   0.0000000000)
 A2 = (   1.5642940000,   2.7094370000,   0.0000000000)
 A3 = (   0.0000000000,   0.0000000000,   5.0169550000)

Analysis of symmetry for initial positions (statically):
 Subroutine PRICEL returns:
 Original cell was already a primitive cell.

 Routine SETGRP: Setting up the symmetry group for a
 hexagonal supercell.

 Subroutine GETGRP returns: Found 12 space group operations
 (whereof  6 operations were pure point group operations)
 out of a pool of 24 trial point group operations.

The static configuration has the point symmetry C_3v.
 The point group associated with its full space group is C_6v.

Analysis of symmetry for dynamics (positions and initial velocities):
 Subroutine PRICEL returns:
 Original cell was already a primitive cell.

 Routine SETGRP: Setting up the symmetry group for a
 hexagonal supercell.

 Subroutine GETGRP returns: Found 12 space group operations
 (whereof  6 operations were pure point group operations)
 out of a pool of 24 trial point group operations.

The dynamic configuration has the point symmetry C_3v.
 The point group associated with its full space group is C_6v.

 Subroutine INISYM returns: Found 12 space group operations
 (whereof  6 operations are pure point group operations),
 and found     1 'primitive' translations

 KPOINTS: K-Points

Automatic generation of k-mesh.
Space group operators:
 irot       det(A)        alpha          n_x          n_y          n_z        tau_x        tau_y        tau_z
    1     1.000000     0.000000     1.000000     0.000000     0.000000     0.000000     0.000000     0.000000
    2     1.000000   120.000000     0.000000     0.000000    -1.000000     0.000000     0.000000     0.000000
    3     1.000000   120.000000     0.000000     0.000000     1.000000     0.000000     0.000000     0.000000
    4    -1.000000   180.000000     0.500000    -0.866025     0.000000     0.000000     0.000000     0.000000
    5    -1.000000   180.000000    -0.500000    -0.866025     0.000000     0.000000     0.000000     0.000000
    6    -1.000000   179.999999     1.000000     0.000000     0.000000     0.000000     0.000000     0.000000
    7     1.000000    60.000000     0.000000     0.000000    -1.000000     0.000001    -0.000000     0.500000
    8     1.000000   180.000000     0.000000     0.000000     1.000000     0.000000     0.000000     0.500000
    9     1.000000    60.000000     0.000000     0.000000     1.000000     0.000000     0.000000     0.500000
   10    -1.000000   180.000000     0.000000     1.000000     0.000000     0.000000     0.000000     0.500000
   11    -1.000000   180.000000     0.866025     0.500000     0.000000     0.000001    -0.000000     0.500000
   12    -1.000000   180.000000     0.866025    -0.500000     0.000000     0.000000     0.000000     0.500000

 Subroutine IBZKPT returns following result:

 Found     96 irreducible k-points:

 Following reciprocal coordinates:
            Coordinates               Weight
  0.000000  0.000000  0.000000      1.000000
  0.090909  0.000000  0.000000      6.000000
  0.181818  0.000000  0.000000      6.000000
  0.272727  0.000000  0.000000      6.000000
  0.363636  0.000000  0.000000      6.000000
  0.454545  0.000000  0.000000      6.000000
  0.090909  0.090909  0.000000      6.000000
  0.181818  0.090909  0.000000     12.000000
  0.272727  0.090909  0.000000     12.000000
  0.363636  0.090909  0.000000     12.000000
  0.454545  0.090909  0.000000      6.000000
  0.181818  0.181818  0.000000      6.000000
  0.272727  0.181818  0.000000     12.000000
  0.363636  0.181818  0.000000     12.000000
  0.272727  0.272727  0.000000      6.000000
  0.363636  0.272727  0.000000      6.000000
  0.000000  0.000000  0.090909      2.000000
  0.090909  0.000000  0.090909     12.000000
  0.181818  0.000000  0.090909     12.000000
  0.272727  0.000000  0.090909     12.000000
  0.363636  0.000000  0.090909     12.000000
  0.454545  0.000000  0.090909     12.000000
  0.090909  0.090909  0.090909     12.000000
  0.181818  0.090909  0.090909     24.000000
  0.272727  0.090909  0.090909     24.000000
  0.363636  0.090909  0.090909     24.000000
  0.454545  0.090909  0.090909     12.000000
  0.181818  0.181818  0.090909     12.000000
  0.272727  0.181818  0.090909     24.000000
  0.363636  0.181818  0.090909     24.000000
  0.272727  0.272727  0.090909     12.000000
  0.363636  0.272727  0.090909     12.000000
  0.000000  0.000000  0.181818      2.000000
  0.090909  0.000000  0.181818     12.000000
  0.181818  0.000000  0.181818     12.000000
  0.272727  0.000000  0.181818     12.000000
  0.363636  0.000000  0.181818     12.000000
  0.454545  0.000000  0.181818     12.000000
  0.090909  0.090909  0.181818     12.000000
  0.181818  0.090909  0.181818     24.000000
  0.272727  0.090909  0.181818     24.000000
  0.363636  0.090909  0.181818     24.000000
  0.454545  0.090909  0.181818     12.000000
  0.181818  0.181818  0.181818     12.000000
  0.272727  0.181818  0.181818     24.000000
  0.363636  0.181818  0.181818     24.000000
  0.272727  0.272727  0.181818     12.000000
  0.363636  0.272727  0.181818     12.000000
  0.000000  0.000000  0.272727      2.000000
  0.090909  0.000000  0.272727     12.000000
  0.181818  0.000000  0.272727     12.000000
  0.272727  0.000000  0.272727     12.000000
  0.363636  0.000000  0.272727     12.000000
  0.454545  0.000000  0.272727     12.000000
  0.090909  0.090909  0.272727     12.000000
  0.181818  0.090909  0.272727     24.000000
  0.272727  0.090909  0.272727     24.000000
  0.363636  0.090909  0.272727     24.000000
  0.454545  0.090909  0.272727     12.000000
  0.181818  0.181818  0.272727     12.000000
[...]
  0.090909  0.000000  0.454545     12.000000
  0.181818  0.000000  0.454545     12.000000
  0.272727  0.000000  0.454545     12.000000
  0.363636  0.000000  0.454545     12.000000
  0.454545  0.000000  0.454545     12.000000
  0.090909  0.090909  0.454545     12.000000
  0.181818  0.090909  0.454545     24.000000
  0.272727  0.090909  0.454545     24.000000
  0.363636  0.090909  0.454545     24.000000
  0.454545  0.090909  0.454545     12.000000
  0.181818  0.181818  0.454545     12.000000
  0.272727  0.181818  0.454545     24.000000
  0.363636  0.181818  0.454545     24.000000
  0.272727  0.272727  0.454545     12.000000
  0.363636  0.272727  0.454545     12.000000

 Following cartesian coordinates:
            Coordinates               Weight
  0.000000  0.000000  0.000000      1.000000
  0.029058 -0.016776  0.000000      6.000000
  0.058115 -0.033553  0.000000      6.000000
  0.087173 -0.050329  0.000000      6.000000
  0.116230 -0.067106  0.000000      6.000000
  0.145288 -0.083882  0.000000      6.000000
  0.058115  0.000000  0.000000      6.000000
  0.087173 -0.016776  0.000000     12.000000
  0.116230 -0.033553  0.000000     12.000000
  0.145288 -0.050329  0.000000     12.000000
  0.174345 -0.067106  0.000000      6.000000
  0.116230  0.000000  0.000000      6.000000
  0.145288 -0.016776  0.000000     12.000000
  0.174345 -0.033553  0.000000     12.000000
  0.174345 -0.000000  0.000000      6.000000
  0.203403 -0.016776  0.000000      6.000000
  0.000000  0.000000  0.018120      2.000000
  0.029058 -0.016776  0.018120     12.000000
  0.058115 -0.033553  0.018120     12.000000
  0.087173 -0.050329  0.018120     12.000000
  0.116230 -0.067106  0.018120     12.000000
  0.145288 -0.083882  0.018120     12.000000
  0.058115  0.000000  0.018120     12.000000
  0.087173 -0.016776  0.018120     24.000000
  0.116230 -0.033553  0.018120     24.000000
  0.145288 -0.050329  0.018120     24.000000
  0.174345 -0.067106  0.018120     12.000000
  0.116230  0.000000  0.018120     12.000000
  0.145288 -0.016776  0.018120     24.000000
  0.174345 -0.033553  0.018120     24.000000
  0.174345 -0.000000  0.018120     12.000000
  0.203403 -0.016776  0.018120     12.000000
  0.000000  0.000000  0.036241      2.000000
  0.029058 -0.016776  0.036241     12.000000
  0.058115 -0.033553  0.036241     12.000000
  0.087173 -0.050329  0.036241     12.000000
  0.116230 -0.067106  0.036241     12.000000
  0.145288 -0.083882  0.036241     12.000000
  0.058115  0.000000  0.036241     12.000000
  0.087173 -0.016776  0.036241     24.000000
  0.116230 -0.033553  0.036241     24.000000
  0.145288 -0.050329  0.036241     24.000000
  0.174345 -0.067106  0.036241     12.000000
  0.116230  0.000000  0.036241     12.000000
  0.145288 -0.016776  0.036241     24.000000
  0.174345 -0.033553  0.036241     24.000000
  0.174345 -0.000000  0.036241     12.000000
  0.203403 -0.016776  0.036241     12.000000
  0.000000  0.000000  0.054361      2.000000
  0.029058 -0.016776  0.054361     12.000000
  0.058115 -0.033553  0.054361     12.000000
  0.087173 -0.050329  0.054361     12.000000
  0.116230 -0.067106  0.054361     12.000000
  0.145288 -0.083882  0.054361     12.000000
  0.058115  0.000000  0.054361     12.000000
  0.087173 -0.016776  0.054361     24.000000
  0.116230 -0.033553  0.054361     24.000000
  0.145288 -0.050329  0.054361     24.000000
  0.174345 -0.067106  0.054361     12.000000
  0.116230  0.000000  0.054361     12.000000
[...]
  0.029058 -0.016776  0.090602     12.000000
  0.058115 -0.033553  0.090602     12.000000
  0.087173 -0.050329  0.090602     12.000000
  0.116230 -0.067106  0.090602     12.000000
  0.145288 -0.083882  0.090602     12.000000
  0.058115  0.000000  0.090602     12.000000
  0.087173 -0.016776  0.090602     24.000000
  0.116230 -0.033553  0.090602     24.000000
  0.145288 -0.050329  0.090602     24.000000
  0.174345 -0.067106  0.090602     12.000000
  0.116230  0.000000  0.090602     12.000000
  0.145288 -0.016776  0.090602     24.000000
  0.174345 -0.033553  0.090602     24.000000
  0.174345 -0.000000  0.090602     12.000000
[...]
   0.36363636  0.27272727  0.00000000       0.005
   0.00000000  0.00000000  0.09090909       0.002
   0.09090909  0.00000000  0.09090909       0.009
   0.18181818  0.00000000  0.09090909       0.009
   0.27272727  0.00000000  0.09090909       0.009
   0.36363636  0.00000000  0.09090909       0.009
   0.45454545  0.00000000  0.09090909       0.009
   0.09090909  0.09090909  0.09090909       0.009
   0.18181818  0.09090909  0.09090909       0.018
   0.27272727  0.09090909  0.09090909       0.018
   0.36363636  0.09090909  0.09090909       0.018
   0.45454545  0.09090909  0.09090909       0.009
   0.18181818  0.18181818  0.09090909       0.009
   0.27272727  0.18181818  0.09090909       0.018
   0.36363636  0.18181818  0.09090909       0.018
   0.27272727  0.27272727  0.09090909       0.009
   0.36363636  0.27272727  0.09090909       0.009
   0.00000000  0.00000000  0.18181818       0.002
   0.09090909  0.00000000  0.18181818       0.009
   0.18181818  0.00000000  0.18181818       0.009
   0.27272727  0.00000000  0.18181818       0.009
   0.36363636  0.00000000  0.18181818       0.009
   0.45454545  0.00000000  0.18181818       0.009
   0.09090909  0.09090909  0.18181818       0.009
   0.18181818  0.09090909  0.18181818       0.018
   0.27272727  0.09090909  0.18181818       0.018
   0.36363636  0.09090909  0.18181818       0.018
   0.45454545  0.09090909  0.18181818       0.009
   0.18181818  0.18181818  0.18181818       0.009
   0.27272727  0.18181818  0.18181818       0.018
   0.36363636  0.18181818  0.18181818       0.018
   0.27272727  0.27272727  0.18181818       0.009
   0.36363636  0.27272727  0.18181818       0.009
   0.00000000  0.00000000  0.27272727       0.002
   0.09090909  0.00000000  0.27272727       0.009
   0.18181818  0.00000000  0.27272727       0.009
   0.27272727  0.00000000  0.27272727       0.009
   0.36363636  0.00000000  0.27272727       0.009
   0.45454545  0.00000000  0.27272727       0.009
   0.09090909  0.09090909  0.27272727       0.009
   0.18181818  0.09090909  0.27272727       0.018
   0.27272727  0.09090909  0.27272727       0.018
   0.36363636  0.09090909  0.27272727       0.018
   0.45454545  0.09090909  0.27272727       0.009
   0.18181818  0.18181818  0.27272727       0.009
[...]
   0.09090909  0.00000000  0.45454545       0.009
   0.18181818  0.00000000  0.45454545       0.009
   0.27272727  0.00000000  0.45454545       0.009
   0.36363636  0.00000000  0.45454545       0.009
   0.45454545  0.00000000  0.45454545       0.009
   0.09090909  0.09090909  0.45454545       0.009
   0.18181818  0.09090909  0.45454545       0.018
   0.27272727  0.09090909  0.45454545       0.018
   0.36363636  0.09090909  0.45454545       0.018
   0.45454545  0.09090909  0.45454545       0.009
   0.18181818  0.18181818  0.45454545       0.009
   0.27272727  0.18181818  0.45454545       0.018
   0.36363636  0.18181818  0.45454545       0.018
   0.27272727  0.27272727  0.45454545       0.009
   0.36363636  0.27272727  0.45454545       0.009

 position of ions in fractional coordinates (direct lattice)
   0.66666700  0.33333300  0.49928700
   0.33333300  0.66666700  0.99928700
   0.66666700  0.33333300  0.88071300
   0.33333300  0.66666700  0.38071300

 position of ions in cartesian coordinates  (Angst):
   1.56429400 -0.90314747  2.50490041
   1.56429400  0.90314747  5.01337791
   1.56429400 -0.90314747  4.41849749
   1.56429400  0.90314747  1.91001999

 k-point  1 :   0.0000 0.0000 0.0000  plane waves:     773
 k-point  2 :   0.0909 0.0000 0.0000  plane waves:     757
 k-point  3 :   0.1818 0.0000 0.0000  plane waves:     775
 k-point  4 :   0.2727 0.0000 0.0000  plane waves:     773
 k-point  5 :   0.3636 0.0000 0.0000  plane waves:     781
 k-point  6 :   0.4545 0.0000 0.0000  plane waves:     768
 k-point  7 :   0.0909 0.0909 0.0000  plane waves:     757
 k-point  8 :   0.1818 0.0909 0.0000  plane waves:     775
 k-point  9 :   0.2727 0.0909 0.0000  plane waves:     776
 k-point 10 :   0.3636 0.0909 0.0000  plane waves:     771
 k-point 11 :   0.4545 0.0909 0.0000  plane waves:     778
 k-point 12 :   0.1818 0.1818 0.0000  plane waves:     777
 k-point 13 :   0.2727 0.1818 0.0000  plane waves:     775
 k-point 14 :   0.3636 0.1818 0.0000  plane waves:     774
 k-point 15 :   0.2727 0.2727 0.0000  plane waves:     773
 k-point 16 :   0.3636 0.2727 0.0000  plane waves:     773
 k-point 17 :   0.0000 0.0000 0.0909  plane waves:     767
 k-point 18 :   0.0909 0.0000 0.0909  plane waves:     761
 k-point 19 :   0.1818 0.0000 0.0909  plane waves:     766
 k-point 20 :   0.2727 0.0000 0.0909  plane waves:     768
 k-point 21 :   0.3636 0.0000 0.0909  plane waves:     778
 k-point 22 :   0.4545 0.0000 0.0909  plane waves:     768
 k-point 23 :   0.0909 0.0909 0.0909  plane waves:     759
 k-point 24 :   0.1818 0.0909 0.0909  plane waves:     774
 k-point 25 :   0.2727 0.0909 0.0909  plane waves:     775
 k-point 26 :   0.3636 0.0909 0.0909  plane waves:     776
 k-point 27 :   0.4545 0.0909 0.0909  plane waves:     774
 k-point 28 :   0.1818 0.1818 0.0909  plane waves:     775
 k-point 29 :   0.2727 0.1818 0.0909  plane waves:     774
 k-point 30 :   0.3636 0.1818 0.0909  plane waves:     771
 k-point 31 :   0.2727 0.2727 0.0909  plane waves:     775
 k-point 32 :   0.3636 0.2727 0.0909  plane waves:     776
 k-point 33 :   0.0000 0.0000 0.1818  plane waves:     766
 k-point 34 :   0.0909 0.0000 0.1818  plane waves:     763
 k-point 35 :   0.1818 0.0000 0.1818  plane waves:     764
 k-point 36 :   0.2727 0.0000 0.1818  plane waves:     770
 k-point 37 :   0.3636 0.0000 0.1818  plane waves:     776
 k-point 38 :   0.4545 0.0000 0.1818  plane waves:     774
 k-point 39 :   0.0909 0.0909 0.1818  plane waves:     760
 k-point 40 :   0.1818 0.0909 0.1818  plane waves:     772
 k-point 41 :   0.2727 0.0909 0.1818  plane waves:     775
 k-point 42 :   0.3636 0.0909 0.1818  plane waves:     774
 k-point 43 :   0.4545 0.0909 0.1818  plane waves:     772
 k-point 44 :   0.1818 0.1818 0.1818  plane waves:     778
 k-point 45 :   0.2727 0.1818 0.1818  plane waves:     774
 k-point 46 :   0.3636 0.1818 0.1818  plane waves:     770
 k-point 47 :   0.2727 0.2727 0.1818  plane waves:     777
 k-point 48 :   0.3636 0.2727 0.1818  plane waves:     771
 k-point 49 :   0.0000 0.0000 0.2727  plane waves:     778
 k-point 50 :   0.0909 0.0000 0.2727  plane waves:     759
 k-point 51 :   0.1818 0.0000 0.2727  plane waves:     766
 k-point 52 :   0.2727 0.0000 0.2727  plane waves:     774
 k-point 53 :   0.3636 0.0000 0.2727  plane waves:     777
 k-point 54 :   0.4545 0.0000 0.2727  plane waves:     773
 k-point 55 :   0.0909 0.0909 0.2727  plane waves:     762
 k-point 56 :   0.1818 0.0909 0.2727  plane waves:     765
 k-point 57 :   0.2727 0.0909 0.2727  plane waves:     771
 k-point 58 :   0.3636 0.0909 0.2727  plane waves:     774
 k-point 59 :   0.4545 0.0909 0.2727  plane waves:     777
 k-point 60 :   0.1818 0.1818 0.2727  plane waves:     776
[...]
 k-point 82 :   0.0909 0.0000 0.4545  plane waves:     762
 k-point 83 :   0.1818 0.0000 0.4545  plane waves:     767
 k-point 84 :   0.2727 0.0000 0.4545  plane waves:     774
 k-point 85 :   0.3636 0.0000 0.4545  plane waves:     770
 k-point 86 :   0.4545 0.0000 0.4545  plane waves:     776
 k-point 87 :   0.0909 0.0909 0.4545  plane waves:     758
 k-point 88 :   0.1818 0.0909 0.4545  plane waves:     764
 k-point 89 :   0.2727 0.0909 0.4545  plane waves:     771
 k-point 90 :   0.3636 0.0909 0.4545  plane waves:     780
 k-point 91 :   0.4545 0.0909 0.4545  plane waves:     780
 k-point 92 :   0.1818 0.1818 0.4545  plane waves:     764
 k-point 93 :   0.2727 0.1818 0.4545  plane waves:     784
 k-point 94 :   0.3636 0.1818 0.4545  plane waves:     783
 k-point 95 :   0.2727 0.2727 0.4545  plane waves:     778
 k-point 96 :   0.3636 0.2727 0.4545  plane waves:     778

 maximum and minimum number of plane-waves per node :       784      757

 maximum number of plane-waves:       784
 maximum index in each direction:
   IXMAX=    5   IYMAX=    5   IZMAX=    8
   IXMIN=   -5   IYMIN=   -5   IZMIN=   -8

 serial   3D FFT for wavefunctions
 parallel 3D FFT for charge:
    minimum data exchange during FFTs selected (reduces bandwidth)

 Broyden mixing: mesh for mixing (old mesh)
   NGX = 11   NGY = 11   NGZ = 17
  (NGX  = 40   NGY  = 40   NGZ  = 72)
  gives a total of   2057 points

 initial charge density was supplied:
 charge density of overlapping atoms calculated
 number of electron      16.0000000 magnetization
 keeping initial charge density in first step

 Maximum index for augmentation-charges         3183 (set IRDMAX)

 First call to EWALD:  gamma=   0.508
 Maximum number of real-space cells 3x 3x 2
 Maximum number of reciprocal cells 3x 3x 4

--------------------------------------- Iteration      1(   1)  ---------------------------------------

 eigenvalue-minimisations  :  2328
 total energy-change (2. order) : 0.4150205E+02  (-0.6652243E+03)
 number of electron      16.0000000 magnetization
 augmentation part       16.0000000 magnetization

 Free energy of the ion-electron system (eV)
  alpha Z        PSCENC =        15.37241317
  Ewald energy   TEWEN  =      -588.30353609
  -Hartree energ DENC   =      -120.16344763
  -exchange      EXHF   =         0.00000000
  -V(xc)+E(xc)   XCENC  =       -12.23336185
  PAW double counting   =       542.26577748     -480.73867292
  entropy T*S    EENTRO =        -0.00055813
  eigenvalues    EBANDS =        49.27712165
  atomic energy  EATOM  =       636.02631347
  Solvation  Ediel_sol  =         0.00000000
  free energy    TOTEN  =        41.50204915 eV

  energy without entropy =       41.50260728  energy(sigma->0) =       41.50232821

[...]

 eigenvalue-minimisations  :  3348
 total energy-change (2. order) :-0.7259890E+02  (-0.6640332E+02)
 number of electron      16.0000000 magnetization
 augmentation part       16.0000000 magnetization

[...]

 Broyden mixing:
  rms(total) = 0.11975E+01    rms(broyden)= 0.11973E+01
  rms(prec ) = 0.25703E+01
  weight for this iteration     100.00

[...]

 eigenvalues of (default mixing * dielectric matrix)
  average eigenvalue GAMMA=   0.9551
  0.9551

[...]

 eigenvalue-minimisations  :  2588
 total energy-change (2. order) :-0.1389602E-05  (-0.7008027E-06)
 number of electron      15.9999997 magnetization
 augmentation part        0.4112820 magnetization

 Broyden mixing:
  rms(total) = 0.76494E-03    rms(broyden)= 0.76487E-03
  rms(prec ) = 0.12262E-02
  weight for this iteration     100.00

 eigenvalues of (default mixing * dielectric matrix)
  average eigenvalue GAMMA=   1.7453
  3.1658  2.6406  2.3555  1.0346  1.0346  0.9932  0.9932

[...]

--------------------------------------- Iteration      1(  13)  ---------------------------------------

 eigenvalue-minimisations  :  2748
 total energy-change (2. order) : 0.4756324E-06  (-0.6537217E-06)
 number of electron      15.9999997 magnetization
 augmentation part        0.4112820 magnetization

 Free energy of the ion-electron system (eV)
  alpha Z        PSCENC =        15.37241317
  Ewald energy   TEWEN  =      -588.30353609
  -Hartree energ DENC   =      -156.73435948
  -exchange      EXHF   =         0.00000000
  -V(xc)+E(xc)   XCENC  =        -9.29366518
  PAW double counting   =      1429.80609089    -1368.86775226
  entropy T*S    EENTRO =        -0.00000000
  eigenvalues    EBANDS =        12.21358000
  atomic energy  EATOM  =       636.02631347
  Solvation  Ediel_sol  =         0.00000000
  free energy    TOTEN  =       -29.78091548 eV

  energy without entropy =      -29.78091548  energy(sigma->0) =      -29.78091548

 average (electrostatic) potential at core
  the test charge radii are     1.0406  0.7089
  (the norm of the test charge is              1.0000)
       1 -71.9068       2 -71.9069       3 -60.1567       4 -60.1567

 E-fermi :   6.1654     XC(G=0): -10.8329     alpha+bet :-15.6297

 k-point     1 :       0.0000    0.0000    0.0000
  band No.  band energies     occupation
      1      -9.1053      2.00000
      2      -7.0226      2.00000
      3       0.0621      2.00000
      4       5.1341      2.00000
      5       5.1341      2.00000
      6       5.7759      2.00000
      7       5.7759      2.00000
      8       5.9774      2.00000
      9      10.0262      0.00000
     10      12.4986      0.00000
     11      16.4610      0.00000
     12      17.0180      0.00000

[...]

 k-point    96 :       0.3636    0.2727    0.4545
  band No.  band energies     occupation
      1      -6.6687      2.00000
      2      -6.6341      2.00000
      3       1.0663      2.00000
      4       1.1316      2.00000
      5       2.2486      2.00000
      6       2.5311      2.00000
      7       5.0948      2.00000
      8       5.1827      2.00000
      9      12.7849      0.00000
     10      13.1450      0.00000
     11      14.0559      0.00000
     12      14.2101      0.00000

 soft charge-density along one line, spin component           1
         0         1         2         3         4         5         6         7         8         9
 total charge-density along one line

------------------------ aborting loop because EDIFF is reached ----------------------------------------

 total charge

# of ion       s       p       d       tot
    1        0.367   0.431   0.000   0.798
    2        0.364   0.431   0.000   0.795
    3        1.235   2.577   0.000   3.812
    4        1.235   2.576   0.000   3.810
tot          3.202   6.014   0.000   9.216

  FORCE on cell =-STRESS in cart. coord.  units (eV):
  Direction    XX          YY          ZZ          XY          YZ          ZX
  Alpha Z    15.37241    15.37241    15.37241
  Ewald    -197.85718  -197.85873  -192.58819    -0.00000     0.00000     0.00000
  Hartree    50.64906    50.64906    55.44945    -0.00000    -0.00000    -0.00000
  E(xc)     -62.58597   -62.58595   -62.45786    -0.00000    -0.00000     0.00000
  Local     -50.41876   -50.41766   -60.59227     0.00000    -0.00008     0.00000
  n-local    11.15690    10.48363     9.73515    -0.24319    -0.05421    -0.03700
  augment     0.63503     0.63495     0.67707     0.00000    -0.00000    -0.00000
  Kinetic   227.59911   237.36135   233.49109     6.44615     0.57410    -0.86022
  Fock        0.00000     0.00000     0.00000     0.00000     0.00000     0.00000
  Total      -0.90517    -0.90517    -0.91314     0.00000     0.00000     0.00000
  in kB     -34.10163   -34.10164   -34.40191     0.00000     0.00000     0.00000

 VOLUME and BASIS-vectors are now :
  energy-cutoff  :      400.00
  volume of cell :       42.53
      direct lattice vectors                 reciprocal lattice vectors
     1.564294000 -2.709437000  0.000000000     0.319633010 -0.184540183  0.000000000
     1.564294000  2.709437000  0.000000000     0.319633010  0.184540183  0.000000000
     0.000000000  0.000000000  5.016955000     0.000000000  0.000000000  0.199324092

  length of vectors
     3.128588272  3.128588272  5.016955000     0.369080398  0.369080398  0.199324092

 FORCES acting on ions
    electron-ion (+dipol)            ewald-force                    non-local-force                 convergence-correction
   -.150E-06 -.941E-04 0.290E+00   0.142E-14 0.230E-03 0.624E-01   -.223E-16 -.106E-15 -.355E+00   0.187E-14 0.333E-09 -.944E-06
   -.150E-06 -.747E-04 0.290E+00   0.392E-14 -.230E-03 0.624E-01   -.189E-16 0.249E-16 -.355E+00   -.167E-16 0.142E-09 -.944E-06
   0.176E-07 0.188E-02 0.456E-01   -.295E-14 0.243E-03 -.624E-01   0.543E-18 -.539E-19 0.199E-01   0.141E-13 0.638E-07 -.147E-03
   0.176E-07 -.712E-03 0.456E-01   -.966E-15 -.243E-03 -.624E-01   0.190E-17 0.266E-17 0.199E-01   -.762E-14 -.285E-07 -.147E-03
   -.266E-06 0.996E-03 0.672E+00   0.142E-14 0.621E-15 0.169E-14   -.387E-16 -.782E-16 -.671E+00   0.833E-14 0.358E-07 -.296E-03

 POSITION                                       TOTAL-FORCE (eV/Angst)
      1.56429     -0.90315      2.50490        -0.000000     -0.000000     -0.002793
      1.56429      0.90315      5.01338        -0.000000     -0.000000     -0.002793
      1.56429     -0.90315      4.41850        -0.000000      0.000000      0.002793
      1.56429      0.90315      1.91002         0.000000      0.000000      0.002793
    total drift:                               -0.000000      0.000996      0.000721

  FREE ENERGIE OF THE ION-ELECTRON SYSTEM (eV)
  free  energy   TOTEN  =       -29.78091548 eV

  energy  without entropy=      -29.78091548  energy(sigma->0) =      -29.78091548

 writing wavefunctions

 total charge

# of ion       s       p       d       tot
    1        0.367   0.431   0.000   0.798
    2        0.364   0.431   0.000   0.795
    3        1.235   2.577   0.000   3.812
    4        1.235   2.576   0.000   3.810
tot          3.202   6.014   0.000   9.216